\ This file has been generated by DOcplex
\ ENCODING=ISO-8859-1
\Problem name: random_problem.lp

Minimize
 obj: 412 x0 + 206 x1 + 103 x2 + 276 x3 + 138 x4 + 69 x5 - 1180 x6 - 590 x7
      - 295 x8 - 680 x9 - 340 x10 - 170 x11 + [ 3936 x0^2 + 3936 x0*x1
      + 1968 x0*x2 + 2112 x0*x3 + 1056 x0*x4 + 528 x0*x5 + 3392 x0*x6
      + 1696 x0*x7 + 848 x0*x8 + 2240 x0*x9 + 1120 x0*x10 + 560 x0*x11
      + 984 x1^2 + 984 x1*x2 + 1056 x1*x3 + 528 x1*x4 + 264 x1*x5 + 1696 x1*x6
      + 848 x1*x7 + 424 x1*x8 + 1120 x1*x9 + 560 x1*x10 + 280 x1*x11 + 246 x2^2
      + 528 x2*x3 + 264 x2*x4 + 132 x2*x5 + 848 x2*x6 + 424 x2*x7 + 212 x2*x8
      + 560 x2*x9 + 280 x2*x10 + 140 x2*x11 + 4512 x3^2 + 4512 x3*x4
      + 2256 x3*x5 + 576 x3*x6 + 288 x3*x7 + 144 x3*x8 + 128 x3*x9 + 64 x3*x10
      + 32 x3*x11 + 1128 x4^2 + 1128 x4*x5 + 288 x4*x6 + 144 x4*x7 + 72 x4*x8
      + 64 x4*x9 + 32 x4*x10 + 16 x4*x11 + 282 x5^2 + 144 x5*x6 + 72 x5*x7
      + 36 x5*x8 + 32 x5*x9 + 16 x5*x10 + 8 x5*x11 + 1568 x6^2 + 1568 x6*x7
      + 784 x6*x8 + 1280 x6*x9 + 640 x6*x10 + 320 x6*x11 + 392 x7^2 + 392 x7*x8
      + 640 x7*x9 + 320 x7*x10 + 160 x7*x11 + 98 x8^2 + 320 x8*x9 + 160 x8*x10
      + 80 x8*x11 + 2112 x9^2 + 2112 x9*x10 + 1056 x9*x11 + 528 x10^2
      + 528 x10*x11 + 132 x11^2 ]/2
Subject To
 c0: 4 x0 + 2 x1 + x2 + 4 x3 + 2 x4 + x5 + 4 x6 + 2 x7 + x8 + 4 x9 + 2 x10 + x11
      = 7

Bounds
 0 <= x0 <= 1
 0 <= x1 <= 1
 0 <= x2 <= 1
 0 <= x3 <= 1
 0 <= x4 <= 1
 0 <= x5 <= 1
 0 <= x6 <= 1
 0 <= x7 <= 1
 0 <= x8 <= 1
 0 <= x9 <= 1
 0 <= x10 <= 1
 0 <= x11 <= 1

Binaries
 x0 x1 x2 x3 x4 x5 x6 x7 x8 x9 x10 x11
End
